p cnf 50 168
c p weight 20 -1 0
c p weight -20 1 0
c p weight 22 6.12323399573676603586882014729198302312846062338790031898128063403419218957424163818359375E-17 0
c p weight -22 1 0
c p weight 23 1 0
c p weight -23 1 0
c p weight 24 -1 0
c p weight -24 1 0
c p weight 26 -1 0
c p weight -26 1 0
c p weight 29 -1 0
c p weight -29 1 0
c p weight 32 -1 0
c p weight -32 1 0
c p weight 35 -1 0
c p weight -35 1 0
c p weight 38 -1 0
c p weight -38 1 0
c p weight 41 -1 0
c p weight -41 1 0
c p weight 44 -1 0
c p weight -44 1 0
c p weight 47 -1 0
c p weight -47 1 0
c p weight 50 -1 0
c p weight -50 1 0
-17 0
-15 0
-13 0
-11 0
-9 0
-7 0
-5 0
-3 0
-1 0
19 17 -18 0
19 -17 18 0
-19 17 18 0
-19 -17 -18 0
-20 17 0
-20 18 0
20 -17 -18 0
21 -17 19 0
-21 17 19 0
-22 19 0
21 -22 -17 0
-21 -22 17 0
21 22 17 -19 0
-21 22 -17 -19 0
-23 19 0
21 -23 17 0
-21 -23 -17 0
21 23 -17 -19 0
-21 23 17 -19 0
-24 21 0
-24 19 0
-24 -17 0
24 -21 17 -19 0
25 21 -19 0
25 -21 19 0
-25 21 19 0
-25 -21 -19 0
-26 21 0
-26 19 0
26 -21 -19 0
27 21 -15 0
27 -21 15 0
-27 21 15 0
-27 -21 -15 0
28 25 -16 0
28 -25 16 0
-28 25 16 0
-28 -25 -16 0
-29 21 0
-29 16 0
-29 15 -25 0
-29 -15 25 0
29 -21 15 25 -16 0
29 -21 -15 -25 -16 0
30 27 -13 0
30 -27 13 0
-30 27 13 0
-30 -27 -13 0
31 16 -14 0
31 -16 14 0
-31 16 14 0
-31 -16 -14 0
-32 27 0
-32 14 0
-32 13 -16 0
-32 -13 16 0
32 -27 13 16 -14 0
32 -27 -13 -16 -14 0
33 30 -11 0
33 -30 11 0
-33 30 11 0
-33 -30 -11 0
34 14 -12 0
34 -14 12 0
-34 14 12 0
-34 -14 -12 0
-35 30 0
-35 12 0
-35 11 -14 0
-35 -11 14 0
35 -30 11 14 -12 0
35 -30 -11 -14 -12 0
36 33 -9 0
36 -33 9 0
-36 33 9 0
-36 -33 -9 0
37 12 -10 0
37 -12 10 0
-37 12 10 0
-37 -12 -10 0
-38 33 0
-38 10 0
-38 9 -12 0
-38 -9 12 0
38 -33 9 12 -10 0
38 -33 -9 -12 -10 0
39 36 -7 0
39 -36 7 0
-39 36 7 0
-39 -36 -7 0
40 10 -8 0
40 -10 8 0
-40 10 8 0
-40 -10 -8 0
-41 36 0
-41 8 0
-41 7 -10 0
-41 -7 10 0
41 -36 7 10 -8 0
41 -36 -7 -10 -8 0
42 39 -5 0
42 -39 5 0
-42 39 5 0
-42 -39 -5 0
43 8 -6 0
43 -8 6 0
-43 8 6 0
-43 -8 -6 0
-44 39 0
-44 6 0
-44 5 -8 0
-44 -5 8 0
44 -39 5 8 -6 0
44 -39 -5 -8 -6 0
45 42 -3 0
45 -42 3 0
-45 42 3 0
-45 -42 -3 0
46 6 -4 0
46 -6 4 0
-46 6 4 0
-46 -6 -4 0
-47 42 0
-47 4 0
-47 3 -6 0
-47 -3 6 0
47 -42 3 6 -4 0
47 -42 -3 -6 -4 0
48 45 -1 0
48 -45 1 0
-48 45 1 0
-48 -45 -1 0
49 4 -2 0
49 -4 2 0
-49 4 2 0
-49 -4 -2 0
-50 45 0
-50 2 0
-50 1 -4 0
-50 -1 4 0
50 -45 1 4 -2 0
50 -45 -1 -4 -2 0
-48 0
-45 0
-49 0
-42 0
-46 0
-39 0
-43 0
-36 0
-40 0
-33 0
-37 0
-30 0
-34 0
-27 0
-31 0
-21 0
-28 0
